w = 9;
h = 9;
n = 5;
m = 9;
rect_size = [|
3, 3|
3, 4|
4, 3|
3, 5|
5, 3|
3, 6|
6, 3|
3, 9|
9, 3|];
rect_offset = [|
0, 0|
0, 0|
0, 0|
0, 0|
0, 0|
0, 0|
0, 0|
0, 0|
0, 0|];
shape = [{1}, {2}, {3}, {4}, {5}, {6}, {7}, {8}, {9}];
shapeind = [{1}, {2, 3}, {4, 5}, {6, 7}, {8, 9}];
ncopy = [1, 1, 1, 1, 1];
c = 5;
